c nIsolatedPIs 0
c maxPI 32
p cnf 209 532
c gate 33 -7 -23 0
-7 -33 0
-23 -33 0
7 23 33 0
c gate 34 7 23 0
7 -34 0
23 -34 0
-7 -23 34 0
c gate 35 -33 -34 0
-33 -35 0
-34 -35 0
33 34 35 0
c gate 36 -6 22 0
-6 -36 0
22 -36 0
6 -22 36 0
c gate 37 2 -18 0
2 -37 0
-18 -37 0
-2 18 37 0
c gate 38 -1 17 0
-1 -38 0
17 -38 0
1 -17 38 0
c gate 39 -37 38 0
-37 -39 0
38 -39 0
37 -38 39 0
c gate 40 -3 19 0
-3 -40 0
19 -40 0
3 -19 40 0
c gate 41 -2 18 0
-2 -41 0
18 -41 0
2 -18 41 0
c gate 42 -40 -41 0
-40 -42 0
-41 -42 0
40 41 42 0
c gate 43 -39 42 0
-39 -43 0
42 -43 0
39 -42 43 0
c gate 44 4 -20 0
4 -44 0
-20 -44 0
-4 20 44 0
c gate 45 3 -19 0
3 -45 0
-19 -45 0
-3 19 45 0
c gate 46 -44 -45 0
-44 -46 0
-45 -46 0
44 45 46 0
c gate 47 -43 46 0
-43 -47 0
46 -47 0
43 -46 47 0
c gate 48 -5 21 0
-5 -48 0
21 -48 0
5 -21 48 0
c gate 49 -4 20 0
-4 -49 0
20 -49 0
4 -20 49 0
c gate 50 -48 -49 0
-48 -50 0
-49 -50 0
48 49 50 0
c gate 51 -47 50 0
-47 -51 0
50 -51 0
47 -50 51 0
c gate 52 5 -21 0
5 -52 0
-21 -52 0
-5 21 52 0
c gate 53 6 -22 0
6 -53 0
-22 -53 0
-6 22 53 0
c gate 54 -52 -53 0
-52 -54 0
-53 -54 0
52 53 54 0
c gate 55 -51 54 0
-51 -55 0
54 -55 0
51 -54 55 0
c gate 56 -36 -55 0
-36 -56 0
-55 -56 0
36 55 56 0
c gate 57 -35 -56 0
-35 -57 0
-56 -57 0
35 56 57 0
c gate 58 -8 -24 0
-8 -58 0
-24 -58 0
8 24 58 0
c gate 59 8 24 0
8 -59 0
24 -59 0
-8 -24 59 0
c gate 60 -58 -59 0
-58 -60 0
-59 -60 0
58 59 60 0
c gate 61 -7 23 0
-7 -61 0
23 -61 0
7 -23 61 0
c gate 62 -60 -61 0
-60 -62 0
-61 -62 0
60 61 62 0
c gate 63 -57 62 0
-57 -63 0
62 -63 0
57 -62 63 0
c gate 64 35 56 0
35 -64 0
56 -64 0
-35 -56 64 0
c gate 65 -57 -64 0
-57 -65 0
-64 -65 0
57 64 65 0
c gate 66 35 -53 0
35 -66 0
-53 -66 0
-35 53 66 0
c gate 67 -35 53 0
-35 -67 0
53 -67 0
35 -53 67 0
c gate 68 -66 -67 0
-66 -68 0
-67 -68 0
66 67 68 0
c gate 69 65 68 0
65 -69 0
68 -69 0
-65 -68 69 0
c gate 70 -36 60 0
-36 -70 0
60 -70 0
36 -60 70 0
c gate 71 69 70 0
69 -71 0
70 -71 0
-69 -70 71 0
c gate 72 -9 -25 0
-9 -72 0
-25 -72 0
9 25 72 0
c gate 73 9 25 0
9 -73 0
25 -73 0
-9 -25 73 0
c gate 74 -72 -73 0
-72 -74 0
-73 -74 0
72 73 74 0
c gate 75 63 -74 0
63 -75 0
-74 -75 0
-63 74 75 0
c gate 76 -10 -26 0
-10 -76 0
-26 -76 0
10 26 76 0
c gate 77 10 26 0
10 -77 0
26 -77 0
-10 -26 77 0
c gate 78 -76 -77 0
-76 -78 0
-77 -78 0
76 77 78 0
c gate 79 75 -78 0
75 -79 0
-78 -79 0
-75 78 79 0
c gate 80 -11 -27 0
-11 -80 0
-27 -80 0
11 27 80 0
c gate 81 11 27 0
11 -81 0
27 -81 0
-11 -27 81 0
c gate 82 -80 -81 0
-80 -82 0
-81 -82 0
80 81 82 0
c gate 83 79 82 0
79 -83 0
82 -83 0
-79 -82 83 0
c gate 84 -65 -68 0
-65 -84 0
-68 -84 0
65 68 84 0
c gate 85 15 31 0
15 -85 0
31 -85 0
-15 -31 85 0
c gate 86 -15 -31 0
-15 -86 0
-31 -86 0
15 31 86 0
c gate 87 14 30 0
14 -87 0
30 -87 0
-14 -30 87 0
c gate 88 -14 -30 0
-14 -88 0
-30 -88 0
14 30 88 0
c gate 89 -13 -29 0
-13 -89 0
-29 -89 0
13 29 89 0
c gate 90 -88 -89 0
-88 -90 0
-89 -90 0
88 89 90 0
c gate 91 12 28 0
12 -91 0
28 -91 0
-12 -28 91 0
c gate 92 13 29 0
13 -92 0
29 -92 0
-13 -29 92 0
c gate 93 -91 -92 0
-91 -93 0
-92 -93 0
91 92 93 0
c gate 94 90 -93 0
90 -94 0
-93 -94 0
-90 93 94 0
c gate 95 -87 -94 0
-87 -95 0
-94 -95 0
87 94 95 0
c gate 96 -58 -72 0
-58 -96 0
-72 -96 0
58 72 96 0
c gate 97 -6 -22 0
-6 -97 0
-22 -97 0
6 22 97 0
c gate 98 -3 -19 0
-3 -98 0
-19 -98 0
3 19 98 0
c gate 99 2 18 0
2 -99 0
18 -99 0
-2 -18 99 0
c gate 100 -2 -18 0
-2 -100 0
-18 -100 0
2 18 100 0
c gate 101 1 17 0
1 -101 0
17 -101 0
-1 -17 101 0
c gate 102 -100 101 0
-100 -102 0
101 -102 0
100 -101 102 0
c gate 103 -99 -102 0
-99 -103 0
-102 -103 0
99 102 103 0
c gate 104 -98 -103 0
-98 -104 0
-103 -104 0
98 103 104 0
c gate 105 4 20 0
4 -105 0
20 -105 0
-4 -20 105 0
c gate 106 3 19 0
3 -106 0
19 -106 0
-3 -19 106 0
c gate 107 -105 -106 0
-105 -107 0
-106 -107 0
105 106 107 0
c gate 108 -104 107 0
-104 -108 0
107 -108 0
104 -107 108 0
c gate 109 -4 -20 0
-4 -109 0
-20 -109 0
4 20 109 0
c gate 110 -5 -21 0
-5 -110 0
-21 -110 0
5 21 110 0
c gate 111 -109 -110 0
-109 -111 0
-110 -111 0
109 110 111 0
c gate 112 -108 111 0
-108 -112 0
111 -112 0
108 -111 112 0
c gate 113 6 22 0
6 -113 0
22 -113 0
-6 -22 113 0
c gate 114 5 21 0
5 -114 0
21 -114 0
-5 -21 114 0
c gate 115 -113 -114 0
-113 -115 0
-114 -115 0
113 114 115 0
c gate 116 -112 115 0
-112 -116 0
115 -116 0
112 -115 116 0
c gate 117 -97 -116 0
-97 -117 0
-116 -117 0
97 116 117 0
c gate 118 -33 117 0
-33 -118 0
117 -118 0
33 -117 118 0
c gate 119 -34 -59 0
-34 -119 0
-59 -119 0
34 59 119 0
c gate 120 -118 119 0
-118 -120 0
119 -120 0
118 -119 120 0
c gate 121 96 -120 0
96 -121 0
-120 -121 0
-96 120 121 0
c gate 122 -73 -121 0
-73 -122 0
-121 -122 0
73 121 122 0
c gate 123 -76 -122 0
-76 -123 0
-122 -123 0
76 122 123 0
c gate 124 -77 -81 0
-77 -124 0
-81 -124 0
77 81 124 0
c gate 125 -123 124 0
-123 -125 0
124 -125 0
123 -124 125 0
c gate 126 -80 -125 0
-80 -126 0
-125 -126 0
80 125 126 0
c gate 127 -12 -28 0
-12 -127 0
-28 -127 0
12 28 127 0
c gate 128 90 -127 0
90 -128 0
-127 -128 0
-90 127 128 0
c gate 129 126 128 0
126 -129 0
128 -129 0
-126 -128 129 0
c gate 130 95 -129 0
95 -130 0
-129 -130 0
-95 129 130 0
c gate 131 -86 -130 0
-86 -131 0
-130 -131 0
86 130 131 0
c gate 132 -85 -131 0
-85 -132 0
-131 -132 0
85 131 132 0
c gate 133 -16 -32 0
-16 -133 0
-32 -133 0
16 32 133 0
c gate 134 16 32 0
16 -134 0
32 -134 0
-16 -32 134 0
c gate 135 -133 -134 0
-133 -135 0
-134 -135 0
133 134 135 0
c gate 136 -132 -135 0
-132 -136 0
-135 -136 0
132 135 136 0
c gate 137 -85 95 0
-85 -137 0
95 -137 0
85 -95 137 0
c gate 138 -86 -137 0
-86 -138 0
-137 -138 0
86 137 138 0
c gate 139 136 -138 0
136 -139 0
-138 -139 0
-136 138 139 0
c gate 140 -91 -127 0
-91 -140 0
-127 -140 0
91 127 140 0
c gate 141 126 140 0
126 -141 0
140 -141 0
-126 -140 141 0
c gate 142 -87 -88 0
-87 -142 0
-88 -142 0
87 88 142 0
c gate 143 -89 -92 0
-89 -143 0
-92 -143 0
89 92 143 0
c gate 144 142 143 0
142 -144 0
143 -144 0
-142 -143 144 0
c gate 145 141 -144 0
141 -145 0
-144 -145 0
-141 144 145 0
c gate 146 -85 -86 0
-85 -146 0
-86 -146 0
85 86 146 0
c gate 147 95 -146 0
95 -147 0
-146 -147 0
-95 146 147 0
c gate 148 129 147 0
129 -148 0
147 -148 0
-129 -147 148 0
c gate 149 -145 -148 0
-145 -149 0
-148 -149 0
145 148 149 0
c gate 150 -139 149 0
-139 -150 0
149 -150 0
139 -149 150 0
c gate 151 33 -59 0
33 -151 0
-59 -151 0
-33 59 151 0
c gate 152 96 -151 0
96 -152 0
-151 -152 0
-96 151 152 0
c gate 153 -73 -77 0
-73 -153 0
-77 -153 0
73 77 153 0
c gate 154 -152 153 0
-152 -154 0
153 -154 0
152 -153 154 0
c gate 155 -76 -80 0
-76 -155 0
-80 -155 0
76 80 155 0
c gate 156 -154 155 0
-154 -156 0
155 -156 0
154 -155 156 0
c gate 157 -81 -156 0
-81 -157 0
-156 -157 0
81 156 157 0
c gate 158 -140 157 0
-140 -158 0
157 -158 0
140 -157 158 0
c gate 159 126 -158 0
126 -159 0
-158 -159 0
-126 158 159 0
c gate 160 140 -157 0
140 -160 0
-157 -160 0
-140 157 160 0
c gate 161 -126 -160 0
-126 -161 0
-160 -161 0
126 160 161 0
c gate 162 -159 -161 0
-159 -162 0
-161 -162 0
159 161 162 0
c gate 163 150 -162 0
150 -163 0
-162 -163 0
-150 162 163 0
c gate 164 35 60 0
35 -164 0
60 -164 0
-35 -60 164 0
c gate 165 -117 164 0
-117 -165 0
164 -165 0
117 -164 165 0
c gate 166 -141 -165 0
-141 -166 0
-165 -166 0
141 165 166 0
c gate 167 -163 -166 0
-163 -167 0
-166 -167 0
163 166 167 0
c gate 168 -69 -84 0
-69 -168 0
-84 -168 0
69 84 168 0
c gate 169 131 137 0
131 -169 0
137 -169 0
-131 -137 169 0
c gate 170 -136 169 0
-136 -170 0
169 -170 0
136 -169 170 0
c gate 171 168 -170 0
168 -171 0
-170 -171 0
-168 170 171 0
c gate 172 167 171 0
167 -172 0
171 -172 0
-167 -171 172 0
c gate 173 -84 -172 0
-84 -173 0
-172 -173 0
84 172 173 0
c gate 174 -71 173 0
-71 -174 0
173 -174 0
71 -173 174 0
c gate 175 -63 174 0
-63 -175 0
174 -175 0
63 -174 175 0
c gate 176 -79 -175 0
-79 -176 0
-175 -176 0
79 175 176 0
c gate 177 -83 -176 0
-83 -177 0
-176 -177 0
83 176 177 0
c gate 178 -10 26 0
-10 -178 0
26 -178 0
10 -26 178 0
c gate 179 8 -24 0
8 -179 0
-24 -179 0
-8 24 179 0
c gate 180 -74 179 0
-74 -180 0
179 -180 0
74 -179 180 0
c gate 181 9 -25 0
9 -181 0
-25 -181 0
-9 25 181 0
c gate 182 -180 -181 0
-180 -182 0
-181 -182 0
180 181 182 0
c gate 183 -75 182 0
-75 -183 0
182 -183 0
75 -182 183 0
c gate 184 -178 -183 0
-178 -184 0
-183 -184 0
178 183 184 0
c gate 185 10 -26 0
10 -185 0
-26 -185 0
-10 26 185 0
c gate 186 -82 -185 0
-82 -186 0
-185 -186 0
82 185 186 0
c gate 187 -184 186 0
-184 -187 0
186 -187 0
184 -186 187 0
c gate 188 -177 -187 0
-177 -188 0
-187 -188 0
177 187 188 0
c gate 189 -135 -140 0
-135 -189 0
-140 -189 0
135 140 189 0
c gate 190 -142 -143 0
-142 -190 0
-143 -190 0
142 143 190 0
c gate 191 -146 190 0
-146 -191 0
190 -191 0
146 -190 191 0
c gate 192 189 191 0
189 -192 0
191 -192 0
-189 -191 192 0
c gate 193 187 192 0
187 -193 0
192 -193 0
-187 -192 193 0
c gate 194 -188 -193 0
-188 -194 0
-193 -194 0
188 193 194 0
c gate 195 -97 116 0
-97 -195 0
116 -195 0
97 -116 195 0
c gate 196 35 97 0
35 -196 0
97 -196 0
-35 -97 196 0
c gate 197 -195 -196 0
-195 -197 0
-196 -197 0
195 196 197 0
c gate 198 -162 -197 0
-162 -198 0
-197 -198 0
162 197 198 0
c gate 199 -141 -198 0
-141 -199 0
-198 -199 0
141 198 199 0
c gate 200 150 -199 0
150 -200 0
-199 -200 0
-150 199 200 0
c gate 201 171 -200 0
171 -201 0
-200 -201 0
-171 200 201 0
c gate 202 -84 -201 0
-84 -202 0
-201 -202 0
84 201 202 0
c gate 203 -194 202 0
-194 -203 0
202 -203 0
194 -202 203 0
c gate 204 -71 203 0
-71 -204 0
203 -204 0
71 -203 204 0
c gate 205 -174 194 0
-174 -205 0
194 -205 0
174 -194 205 0
c gate 206 -204 -205 0
-204 -206 0
-205 -206 0
204 205 206 0
c gate 207 63 206 0
63 -207 0
206 -207 0
-63 -206 207 0
c gate 208 -63 -206 0
-63 -208 0
-206 -208 0
63 206 208 0
c gate 209 -207 -208 0
-207 -209 0
-208 -209 0
207 208 209 0
c PO
-209 0
